TCS_Benchmarks/redos_fix/corpus2_output_distinct_4707_4706_8_0.smt2
(set-logic QF_S)
(declare-const x String)
(assert (str.in.re x (re.inter  (re.++ (re.* (re.union (re.range "\u{00}" "\u{09}") (re.range "\u{0b}" "\u{0c}") (re.range "\u{0e}" "\u{84}") (re.range "\u{86}" "\u{ff}")) ) (re.+ (re.range "\u{30}" "\u{39}") ))  (re.++ (re.* (re.union (re.range "\u{00}" "\u{09}") (re.range "\u{0b}" "\u{0c}") (re.range "\u{0e}" "\u{84}") (re.range "\u{86}" "\u{ff}")) ) (re.++  (re.++  (str.to.re "\u{2f}") (re.++  (str.to.re "\u{74}") (re.++  (str.to.re "\u{61}") (re.++  (str.to.re "\u{73}") (re.++  (str.to.re "\u{6b}") (re.++  (str.to.re "\u{2d}") (re.++  (str.to.re "\u{61}") (re.++  (str.to.re "\u{74}") (re.++  (str.to.re "\u{74}") (re.++  (str.to.re "\u{65}") (re.++  (str.to.re "\u{6d}") (re.++  (str.to.re "\u{70}") (re.++  (str.to.re "\u{74}") (re.++  (str.to.re "\u{73}") (re.++  (str.to.re "\u{2f}") (re.++  (str.to.re "\u{61}") (re.++  (str.to.re "\u{74}") (re.++  (str.to.re "\u{74}") (re.++  (str.to.re "\u{65}") (re.++  (str.to.re "\u{6d}") (re.++  (str.to.re "\u{70}") (re.++  (str.to.re "\u{74}") (re.++  (str.to.re "\u{5f}") (re.++ (re.+ (re.range "\u{30}" "\u{39}") )  (str.to.re "\u{5f}"))))))))))))))))))))))))) (re.+ (re.range "\u{30}" "\u{39}") ))) )))
(check-sat)
(get-model)