TCS_Benchmarks/redos_fix/corpus2_output_distinct_4707_4706_8_0.txt
(.*)(\d+)
(.*)(\/task-attempts\/attempt_(\d+)_)(\d+)